Route 1: 0 9 15 55 27 12 82 56 95 71 0
Route 2: 0 34 29 44 87 7 86 83 0
Route 3: 0 8 94 78 57 31 18 36 49 63 79 4 0
Route 4: 0 66 19 91 43 39 53 99 77 23 14 16 0
Route 5: 0 60 33 26 11 1 50 67 0
Route 6: 0 92 47 81 17 65 24 89 28 22 6 32 0
Route 7: 0 45 37 90 61 68 100 74 0
Route 8: 0 30 62 5 20 51 2 80 0
Route 9: 0 93 64 52 38 42 48 70 96 35 0
Route 10: 0 98 21 72 3 40 97 0
Route 11: 0 59 75 58 69 41 88 73 25 84 13 46 0
Route 12: 0 85 10 76 54 0
